82233.3
72 68 77 44 92 10 96 7 54 21 36 57 73 51 12 26 47 9 45 85 84 24 53 76 35 6 48 0 43 64 90 60 5 91 18 59 52 22 75 34 55 17 29 14 78 32 56 66 40 27 20 81 83 49 33 41 93 16 4 50 79 23 30 67 95 38 15 88 69 42 70 61 19 8 28 62 94 58 63 82 65 99 39 71 46 97 80 31 1 87 3 89 25 13 74 37 11 86 98 2 
